(set-info :source |printed by MathSAT|)
(declare-fun call__main_.call_hypothese2.ite4.next () Int)
(declare-fun call__main_.nB1 () Int)
(declare-fun call__main_.call_hypothese2.ite2.next () Bool)
(declare-fun call__main_.call_controleur2.flby2.next () Bool)
(declare-fun param__B0_.next () Bool)
(declare-fun call__main_.call_hypothese2.ok.next () Bool)
(declare-fun call__main_.call_hypothese.ite.next () Bool)
(declare-fun call__main_.call_hypothese.ite4.next () Int)
(declare-fun call__main_.nS.next () Int)
(declare-fun call_Sofar.flby () Bool)
(declare-fun ast.next () Bool)
(declare-fun call__main_._H0_ () Bool)
(declare-fun call__main_.nB0.next () Int)
(declare-fun call__main_.ite.next () Int)
(declare-fun call__main_.call_controleur2.retard.next () Bool)
(declare-fun call__main_.call_hypothese2.flby2.next () Int)
(declare-fun call__main_.avance1 () Bool)
(declare-fun call__main_.call_hypothese2.flby () Bool)
(declare-fun call__main_.call_controleur.avance.next () Bool)
(declare-fun call__main_.retard1.next () Bool)
(declare-fun call__main_.call_controleur2.ite.next () Bool)
(declare-fun call__main_.flby.next () Int)
(declare-fun _OK_ () Bool)
(declare-fun call__main_.call_controleur.ite2.next () Bool)
(declare-fun call__main_.diff0.next () Int)
(declare-fun nS.next () Int)
(declare-fun call__main_.call_controleur2.flby2 () Bool)
(declare-fun call__main_.call_hypothese2.c.next () Int)
(declare-fun call__main_.call_controleur.retard () Bool)
(declare-fun retard0 () Bool)
(declare-fun call_Sofar.Sofar () Bool)
(declare-fun diff0 () Int)
(declare-fun call__main_.call_controleur.flby2 () Bool)
(declare-fun pOK () Bool)
(declare-fun call__main_.nS () Int)
(declare-fun call__main_.call_hypothese2.flby.next () Bool)
(declare-fun call__main_.call_hypothese2.ok () Bool)
(declare-fun diff0.next () Int)
(declare-fun call__main_.call_controleur2.flby () Bool)
(declare-fun call__main_.call_hypothese.flby2 () Int)
(declare-fun call__main_.ite2.next () Int)
(declare-fun pOK.next () Bool)
(declare-fun call__main_._H1_ () Bool)
(declare-fun diff1 () Int)
(declare-fun flby2.next () Bool)
(declare-fun avance0 () Bool)
(declare-fun call__main_.call_controleur.flby.next () Bool)
(declare-fun call__main_.retard1 () Bool)
(declare-fun call__main_.flby3.next () Int)
(declare-fun call__main_._H0_.next () Bool)
(declare-fun call__main_.retard0 () Bool)
(declare-fun call__main_.call_controleur2.diff.next () Int)
(declare-fun call__main_.call_controleur2.ite2.next () Bool)
(declare-fun call__main_.call_controleur.flby2.next () Bool)
(declare-fun nB1 () Int)
(declare-fun call__main_.call_controleur.avance () Bool)
(declare-fun param__B1_.next () Bool)
(declare-fun nB1.next () Int)
(declare-fun call__main_.call_hypothese.ite3.next () Int)
(declare-fun retard0.next () Bool)
(declare-fun call__main_.call_hypothese.c () Int)
(declare-fun call_Sofar.flby.next () Bool)
(declare-fun call__main_.call_hypothese2.flby2 () Int)
(declare-fun call__main_.call_hypothese.flby.next () Bool)
(declare-fun call__main_.diff1 () Int)
(declare-fun call__main_.nB1.next () Int)
(declare-fun flby.next () Bool)
(declare-fun _OK_.next () Bool)
(declare-fun nB0.next () Int)
(declare-fun call__main_.call_hypothese.c.next () Int)
(declare-fun avance1 () Bool)
(declare-fun call__main_.avance0.next () Bool)
(declare-fun call__main_.call_hypothese.ite2.next () Bool)
(declare-fun call_Sofar.Sofar.next () Bool)
(declare-fun call__main_.call_controleur.retard.next () Bool)
(declare-fun call__main_.call_hypothese.flby () Bool)
(declare-fun call__main_.call_hypothese2.ite3.next () Int)
(declare-fun call__main_.ast () Bool)
(declare-fun call__main_.call_controleur2.flby.next () Bool)
(declare-fun flby2 () Bool)
(declare-fun call__main_.ite3.next () Int)
(declare-fun flby () Bool)
(declare-fun call__main_.call_hypothese.ok.next () Bool)
(declare-fun avance1.next () Bool)
(declare-fun call__main_.call_controleur.diff.next () Int)
(declare-fun call__main_.avance0 () Bool)
(declare-fun call__main_.flby2.next () Int)
(declare-fun call__main_.call_controleur2.diff () Int)
(declare-fun param__S_.next () Bool)
(declare-fun diff1.next () Int)
(declare-fun call__main_.call_controleur.diff () Int)
(declare-fun call__main_.call_controleur.flby () Bool)
(declare-fun call__main_.call_hypothese.flby2.next () Int)
(declare-fun call__main_.call_controleur.ite.next () Bool)
(declare-fun call__main_.nB0 () Int)
(declare-fun call__main_.call_hypothese2.ite.next () Bool)
(declare-fun call__main_.call_controleur2.retard () Bool)
(declare-fun call__main_.flby2 () Int)
(declare-fun call__main_.call_hypothese.ok () Bool)
(declare-fun nS () Int)
(declare-fun call__main_.retard0.next () Bool)
(declare-fun call__main_.flby3 () Int)
(declare-fun call__main_.call_controleur2.avance.next () Bool)
(declare-fun call__main_.flby () Int)
(declare-fun call__main_.call_hypothese2.c () Int)
(declare-fun call__main_.avance1.next () Bool)
(declare-fun call__main_.call_controleur2.avance () Bool)
(declare-fun avance0.next () Bool)
(declare-fun call__main_.ast.next () Bool)
(declare-fun retard1 () Bool)
(declare-fun call__main_.diff1.next () Int)
(declare-fun nB0 () Int)
(declare-fun ast () Bool)
(declare-fun retard1.next () Bool)
(declare-fun call__main_.diff0 () Int)
(declare-fun call__main_._H1_.next () Bool)
(define-fun .def_981 () Bool (= call_Sofar.flby.next call_Sofar.Sofar.next))
(define-fun .def_979 () Bool (= call__main_.call_controleur2.flby2.next call__main_.call_controleur2.retard.next))
(define-fun .def_977 () Bool (= call__main_.call_controleur2.flby.next call__main_.call_controleur2.avance.next))
(define-fun .def_970 () Int (* (- 1) call__main_.nB1.next))
(define-fun .def_973 () Int (+ .def_970 call__main_.nS.next))
(define-fun .def_974 () Int (+ call__main_.call_controleur2.diff.next .def_973))
(define-fun .def_975 () Bool (= .def_974 0))
(define-fun .def_968 () Bool (= call__main_.call_controleur.flby2.next call__main_.call_controleur.retard.next))
(define-fun .def_966 () Bool (= call__main_.call_controleur.flby.next call__main_.call_controleur.avance.next))
(define-fun .def_959 () Int (* (- 1) call__main_.nB0.next))
(define-fun .def_962 () Int (+ .def_959 call__main_.nS.next))
(define-fun .def_963 () Int (+ call__main_.call_controleur.diff.next .def_962))
(define-fun .def_964 () Bool (= .def_963 0))
(define-fun .def_957 () Bool (= call__main_.call_hypothese2.flby2.next call__main_.call_hypothese2.c.next))
(define-fun .def_954 () Bool (= call__main_.call_hypothese2.flby.next call__main_.call_hypothese2.ok.next))
(define-fun .def_952 () Bool (= call__main_.call_hypothese.flby2.next call__main_.call_hypothese.c.next))
(define-fun .def_949 () Bool (= call__main_.call_hypothese.flby.next call__main_.call_hypothese.ok.next))
(define-fun .def_947 () Bool (= call__main_._H1_.next call__main_.call_hypothese2.ok.next))
(define-fun .def_944 () Bool (= call__main_._H0_.next call__main_.call_hypothese.ok.next))
(define-fun .def_941 () Bool (= call__main_.retard1.next call__main_.call_controleur2.retard.next))
(define-fun .def_938 () Bool (= call__main_.retard0.next call__main_.call_controleur.retard.next))
(define-fun .def_935 () Bool (= call__main_.avance1.next call__main_.call_controleur2.avance.next))
(define-fun .def_932 () Bool (= call__main_.avance0.next call__main_.call_controleur.avance.next))
(define-fun .def_929 () Bool (= call__main_.call_controleur2.diff.next call__main_.diff1.next))
(define-fun .def_927 () Bool (= call__main_.call_controleur.diff.next call__main_.diff0.next))
(define-fun .def_925 () Bool (= call__main_.flby3.next call__main_.nS.next))
(define-fun .def_923 () Bool (= call__main_.flby2.next call__main_.nB1.next))
(define-fun .def_921 () Bool (= call__main_.flby.next call__main_.nB0.next))
(define-fun .def_918 () Bool (and call__main_._H0_.next call__main_._H1_.next))
(define-fun .def_919 () Bool (= call__main_.ast.next .def_918))
(define-fun .def_914 () Bool (= ast.next call__main_.ast.next))
(define-fun .def_911 () Bool (= flby.next pOK.next))
(define-fun .def_908 () Bool (= retard1.next call__main_.retard1.next))
(define-fun .def_904 () Bool (= retard0.next call__main_.retard0.next))
(define-fun .def_901 () Bool (= call__main_.avance1.next avance1.next))
(define-fun .def_898 () Bool (= avance0.next call__main_.avance0.next))
(define-fun .def_896 () Bool (= diff1.next call__main_.diff1.next))
(define-fun .def_892 () Bool (= diff0.next call__main_.diff0.next))
(define-fun .def_889 () Bool (= nS.next call__main_.nS.next))
(define-fun .def_886 () Bool (= nB1.next call__main_.nB1.next))
(define-fun .def_883 () Bool (= nB0.next call__main_.nB0.next))
(define-fun .def_879 () Bool (not call_Sofar.Sofar.next))
(define-fun .def_880 () Bool (or flby2.next .def_879))
(define-fun .def_881 () Bool (= _OK_.next .def_880))
(define-fun .def_884 () Bool (and .def_881 .def_883))
(define-fun .def_887 () Bool (and .def_884 .def_886))
(define-fun .def_890 () Bool (and .def_887 .def_889))
(define-fun .def_893 () Bool (and .def_890 .def_892))
(define-fun .def_897 () Bool (and .def_893 .def_896))
(define-fun .def_899 () Bool (and .def_897 .def_898))
(define-fun .def_902 () Bool (and .def_899 .def_901))
(define-fun .def_905 () Bool (and .def_902 .def_904))
(define-fun .def_909 () Bool (and .def_905 .def_908))
(define-fun .def_912 () Bool (and .def_909 .def_911))
(define-fun .def_915 () Bool (and .def_912 .def_914))
(define-fun .def_920 () Bool (and .def_915 .def_919))
(define-fun .def_922 () Bool (and .def_920 .def_921))
(define-fun .def_924 () Bool (and .def_922 .def_923))
(define-fun .def_926 () Bool (and .def_924 .def_925))
(define-fun .def_928 () Bool (and .def_926 .def_927))
(define-fun .def_930 () Bool (and .def_928 .def_929))
(define-fun .def_933 () Bool (and .def_930 .def_932))
(define-fun .def_936 () Bool (and .def_933 .def_935))
(define-fun .def_939 () Bool (and .def_936 .def_938))
(define-fun .def_942 () Bool (and .def_939 .def_941))
(define-fun .def_945 () Bool (and .def_942 .def_944))
(define-fun .def_948 () Bool (and .def_945 .def_947))
(define-fun .def_950 () Bool (and .def_948 .def_949))
(define-fun .def_953 () Bool (and .def_950 .def_952))
(define-fun .def_955 () Bool (and .def_953 .def_954))
(define-fun .def_958 () Bool (and .def_955 .def_957))
(define-fun .def_965 () Bool (and .def_958 .def_964))
(define-fun .def_967 () Bool (and .def_965 .def_966))
(define-fun .def_969 () Bool (and .def_967 .def_968))
(define-fun .def_976 () Bool (and .def_969 .def_975))
(define-fun .def_978 () Bool (and .def_976 .def_977))
(define-fun .def_980 () Bool (and .def_978 .def_979))
(define-fun .def_982 () Bool (and .def_980 .def_981))
(define-fun .def_669 () Bool (= call_Sofar.flby call_Sofar.Sofar))
(define-fun .def_667 () Bool (= call__main_.call_controleur2.flby2 call__main_.call_controleur2.retard))
(define-fun .def_665 () Bool (= call__main_.call_controleur2.flby call__main_.call_controleur2.avance))
(define-fun .def_660 () Int (* (- 1) call__main_.call_controleur2.diff))
(define-fun .def_648 () Int (* (- 1) call__main_.nS))
(define-fun .def_661 () Int (+ .def_648 .def_660))
(define-fun .def_662 () Int (+ call__main_.nB1 .def_661))
(define-fun .def_663 () Bool (= .def_662 0))
(define-fun .def_655 () Bool (= call__main_.call_controleur.flby2 call__main_.call_controleur.retard))
(define-fun .def_653 () Bool (= call__main_.call_controleur.flby call__main_.call_controleur.avance))
(define-fun .def_647 () Int (* (- 1) call__main_.call_controleur.diff))
(define-fun .def_649 () Int (+ .def_648 .def_647))
(define-fun .def_650 () Int (+ call__main_.nB0 .def_649))
(define-fun .def_651 () Bool (= .def_650 0))
(define-fun .def_642 () Bool (= call__main_.call_hypothese2.flby2 call__main_.call_hypothese2.c))
(define-fun .def_639 () Bool (= call__main_.call_hypothese2.flby call__main_.call_hypothese2.ok))
(define-fun .def_637 () Bool (= call__main_.call_hypothese.flby2 call__main_.call_hypothese.c))
(define-fun .def_634 () Bool (= call__main_.call_hypothese.flby call__main_.call_hypothese.ok))
(define-fun .def_632 () Bool (= call__main_._H1_ call__main_.call_hypothese2.ok))
(define-fun .def_629 () Bool (= call__main_._H0_ call__main_.call_hypothese.ok))
(define-fun .def_626 () Bool (= call__main_.retard1 call__main_.call_controleur2.retard))
(define-fun .def_623 () Bool (= call__main_.retard0 call__main_.call_controleur.retard))
(define-fun .def_620 () Bool (= call__main_.avance1 call__main_.call_controleur2.avance))
(define-fun .def_617 () Bool (= call__main_.avance0 call__main_.call_controleur.avance))
(define-fun .def_614 () Bool (= call__main_.diff1 call__main_.call_controleur2.diff))
(define-fun .def_611 () Bool (= call__main_.diff0 call__main_.call_controleur.diff))
(define-fun .def_608 () Bool (= call__main_.flby3 call__main_.nS))
(define-fun .def_606 () Bool (= call__main_.flby2 call__main_.nB1))
(define-fun .def_604 () Bool (= call__main_.flby call__main_.nB0))
(define-fun .def_601 () Bool (and call__main_._H0_ call__main_._H1_))
(define-fun .def_602 () Bool (= call__main_.ast .def_601))
(define-fun .def_597 () Bool (= ast call__main_.ast))
(define-fun .def_594 () Bool (= flby pOK))
(define-fun .def_591 () Bool (= retard1 call__main_.retard1))
(define-fun .def_587 () Bool (= retard0 call__main_.retard0))
(define-fun .def_583 () Bool (= avance1 call__main_.avance1))
(define-fun .def_579 () Bool (= avance0 call__main_.avance0))
(define-fun .def_575 () Bool (= diff1 call__main_.diff1))
(define-fun .def_571 () Bool (= diff0 call__main_.diff0))
(define-fun .def_568 () Bool (= nS call__main_.nS))
(define-fun .def_565 () Bool (= nB1 call__main_.nB1))
(define-fun .def_562 () Bool (= nB0 call__main_.nB0))
(define-fun .def_558 () Bool (not call_Sofar.Sofar))
(define-fun .def_559 () Bool (or flby2 .def_558))
(define-fun .def_560 () Bool (= _OK_ .def_559))
(define-fun .def_563 () Bool (and .def_560 .def_562))
(define-fun .def_566 () Bool (and .def_563 .def_565))
(define-fun .def_569 () Bool (and .def_566 .def_568))
(define-fun .def_572 () Bool (and .def_569 .def_571))
(define-fun .def_576 () Bool (and .def_572 .def_575))
(define-fun .def_580 () Bool (and .def_576 .def_579))
(define-fun .def_584 () Bool (and .def_580 .def_583))
(define-fun .def_588 () Bool (and .def_584 .def_587))
(define-fun .def_592 () Bool (and .def_588 .def_591))
(define-fun .def_595 () Bool (and .def_592 .def_594))
(define-fun .def_598 () Bool (and .def_595 .def_597))
(define-fun .def_603 () Bool (and .def_598 .def_602))
(define-fun .def_605 () Bool (and .def_603 .def_604))
(define-fun .def_607 () Bool (and .def_605 .def_606))
(define-fun .def_609 () Bool (and .def_607 .def_608))
(define-fun .def_612 () Bool (and .def_609 .def_611))
(define-fun .def_615 () Bool (and .def_612 .def_614))
(define-fun .def_618 () Bool (and .def_615 .def_617))
(define-fun .def_621 () Bool (and .def_618 .def_620))
(define-fun .def_624 () Bool (and .def_621 .def_623))
(define-fun .def_627 () Bool (and .def_624 .def_626))
(define-fun .def_630 () Bool (and .def_627 .def_629))
(define-fun .def_633 () Bool (and .def_630 .def_632))
(define-fun .def_635 () Bool (and .def_633 .def_634))
(define-fun .def_638 () Bool (and .def_635 .def_637))
(define-fun .def_640 () Bool (and .def_638 .def_639))
(define-fun .def_643 () Bool (and .def_640 .def_642))
(define-fun .def_652 () Bool (and .def_643 .def_651))
(define-fun .def_654 () Bool (and .def_652 .def_653))
(define-fun .def_656 () Bool (and .def_654 .def_655))
(define-fun .def_664 () Bool (and .def_656 .def_663))
(define-fun .def_666 () Bool (and .def_664 .def_665))
(define-fun .def_668 () Bool (and .def_666 .def_667))
(define-fun .def_670 () Bool (and .def_668 .def_669))
(define-fun .def_983 () Bool (and .def_670 .def_982))
(define-fun .def_870 () Bool (<= 32767 diff0.next))
(define-fun .def_871 () Bool (not .def_870))
(define-fun .def_866 () Bool (<= 1 nS.next))
(define-fun .def_867 () Bool (not .def_866))
(define-fun .def_862 () Bool (<= 1 nB1.next))
(define-fun .def_863 () Bool (not .def_862))
(define-fun .def_857 () Bool (<= 1 nB0.next))
(define-fun .def_858 () Bool (not .def_857))
(define-fun .def_860 () Bool (and .def_858 ast.next))
(define-fun .def_864 () Bool (and .def_860 .def_863))
(define-fun .def_868 () Bool (and .def_864 .def_867))
(define-fun .def_872 () Bool (and .def_868 .def_871))
(define-fun .def_873 () Bool (and call_Sofar.Sofar .def_872))
(define-fun .def_875 () Bool (= .def_873 call_Sofar.flby.next))
(define-fun .def_854 () Bool (= call__main_.call_controleur2.ite2.next call__main_.call_controleur2.flby2.next))
(define-fun .def_851 () Bool (= call__main_.call_controleur2.ite.next call__main_.call_controleur2.flby.next))
(define-fun .def_844 () Bool (<= 0 call__main_.call_controleur2.diff.next))
(define-fun .def_845 () Bool (not .def_844))
(define-fun .def_846 () Bool (= call__main_.call_controleur2.ite2.next .def_845))
(define-fun .def_843 () Bool (not call__main_.call_controleur2.retard))
(define-fun .def_847 () Bool (or .def_843 .def_846))
(define-fun .def_838 () Bool (<= call__main_.call_controleur2.diff.next (- 10)))
(define-fun .def_840 () Bool (= .def_838 call__main_.call_controleur2.ite2.next))
(define-fun .def_841 () Bool (or call__main_.call_controleur2.retard .def_840))
(define-fun .def_834 () Bool (<= 10 call__main_.call_controleur2.diff.next))
(define-fun .def_835 () Bool (= call__main_.call_controleur2.ite.next .def_834))
(define-fun .def_836 () Bool (or call__main_.call_controleur2.avance .def_835))
(define-fun .def_829 () Bool (<= call__main_.call_controleur2.diff.next 0))
(define-fun .def_830 () Bool (not .def_829))
(define-fun .def_832 () Bool (= .def_830 call__main_.call_controleur2.ite.next))
(define-fun .def_827 () Bool (not call__main_.call_controleur2.avance))
(define-fun .def_833 () Bool (or .def_827 .def_832))
(define-fun .def_837 () Bool (and .def_833 .def_836))
(define-fun .def_842 () Bool (and .def_837 .def_841))
(define-fun .def_848 () Bool (and .def_842 .def_847))
(define-fun .def_825 () Bool (= call__main_.call_controleur.ite2.next call__main_.call_controleur.flby2.next))
(define-fun .def_822 () Bool (= call__main_.call_controleur.ite.next call__main_.call_controleur.flby.next))
(define-fun .def_815 () Bool (<= 0 call__main_.call_controleur.diff.next))
(define-fun .def_816 () Bool (not .def_815))
(define-fun .def_817 () Bool (= call__main_.call_controleur.ite2.next .def_816))
(define-fun .def_814 () Bool (not call__main_.call_controleur.retard))
(define-fun .def_818 () Bool (or .def_814 .def_817))
(define-fun .def_809 () Bool (<= call__main_.call_controleur.diff.next (- 10)))
(define-fun .def_811 () Bool (= .def_809 call__main_.call_controleur.ite2.next))
(define-fun .def_812 () Bool (or call__main_.call_controleur.retard .def_811))
(define-fun .def_805 () Bool (<= 10 call__main_.call_controleur.diff.next))
(define-fun .def_806 () Bool (= call__main_.call_controleur.ite.next .def_805))
(define-fun .def_807 () Bool (or call__main_.call_controleur.avance .def_806))
(define-fun .def_800 () Bool (<= call__main_.call_controleur.diff.next 0))
(define-fun .def_801 () Bool (not .def_800))
(define-fun .def_803 () Bool (= .def_801 call__main_.call_controleur.ite.next))
(define-fun .def_798 () Bool (not call__main_.call_controleur.avance))
(define-fun .def_804 () Bool (or .def_798 .def_803))
(define-fun .def_808 () Bool (and .def_804 .def_807))
(define-fun .def_813 () Bool (and .def_808 .def_812))
(define-fun .def_819 () Bool (and .def_813 .def_818))
(define-fun .def_796 () Bool (= call__main_.call_hypothese2.ite4.next call__main_.call_hypothese2.flby2.next))
(define-fun .def_791 () Bool (and call__main_.call_hypothese2.ite2.next call__main_.call_hypothese2.ite.next))
(define-fun .def_793 () Bool (= .def_791 call__main_.call_hypothese2.flby.next))
(define-fun .def_679 () Bool (<= 9 call__main_.call_hypothese2.c))
(define-fun .def_789 () Bool (or call__main_.call_hypothese2.ite2.next .def_679))
(define-fun .def_787 () Bool (= call__main_.call_hypothese.ite4.next call__main_.call_hypothese.flby2.next))
(define-fun .def_782 () Bool (and call__main_.call_hypothese.ite2.next call__main_.call_hypothese.ite.next))
(define-fun .def_784 () Bool (= .def_782 call__main_.call_hypothese.flby.next))
(define-fun .def_701 () Bool (<= 9 call__main_.call_hypothese.c))
(define-fun .def_780 () Bool (or call__main_.call_hypothese.ite2.next .def_701))
(define-fun .def_778 () Bool (= call__main_.ite3.next call__main_.flby3.next))
(define-fun .def_775 () Bool (= call__main_.ite2.next call__main_.flby2.next))
(define-fun .def_772 () Bool (= call__main_.ite.next call__main_.flby.next))
(define-fun .def_769 () Bool (or call__main_.retard1 call__main_.call_hypothese2.ite.next))
(define-fun .def_767 () Bool (or call__main_.retard0 call__main_.call_hypothese.ite.next))
(define-fun .def_760 () Bool (and call__main_.avance1 call__main_.avance1.next))
(define-fun .def_763 () Bool (not .def_760))
(define-fun .def_762 () Bool (= call__main_.call_hypothese2.ite3.next call__main_.call_hypothese2.ite4.next))
(define-fun .def_764 () Bool (or .def_762 .def_763))
(define-fun .def_758 () Bool (= call__main_.call_hypothese2.ite4.next 0))
(define-fun .def_761 () Bool (or .def_758 .def_760))
(define-fun .def_765 () Bool (and .def_761 .def_764))
(define-fun .def_750 () Bool (and call__main_.avance0 call__main_.avance0.next))
(define-fun .def_753 () Bool (not .def_750))
(define-fun .def_752 () Bool (= call__main_.call_hypothese.ite3.next call__main_.call_hypothese.ite4.next))
(define-fun .def_754 () Bool (or .def_752 .def_753))
(define-fun .def_748 () Bool (= call__main_.call_hypothese.ite4.next 0))
(define-fun .def_751 () Bool (or .def_748 .def_750))
(define-fun .def_755 () Bool (and .def_751 .def_754))
(define-fun .def_745 () Bool (= pOK flby2.next))
(define-fun .def_738 () Bool (and retard0 avance0.next))
(define-fun .def_736 () Bool (and avance0 retard0.next))
(define-fun .def_739 () Bool (or .def_736 .def_738))
(define-fun .def_740 () Bool (not .def_739))
(define-fun .def_742 () Bool (= .def_740 flby.next))
(define-fun .def_731 () Bool (= call__main_.nS call__main_.ite3.next))
(define-fun .def_732 () Bool (or param__S_.next .def_731))
(define-fun .def_726 () Int (* (- 1) call__main_.ite3.next))
(define-fun .def_727 () Int (+ call__main_.nS .def_726))
(define-fun .def_728 () Bool (= .def_727 (- 1)))
(define-fun .def_715 () Bool (not param__S_.next))
(define-fun .def_729 () Bool (or .def_715 .def_728))
(define-fun .def_722 () Bool (not call__main_.retard0))
(define-fun .def_721 () Bool (= .def_715 call__main_.call_hypothese.ite.next))
(define-fun .def_723 () Bool (or .def_721 .def_722))
(define-fun .def_718 () Bool (not call__main_.retard1))
(define-fun .def_717 () Bool (= .def_715 call__main_.call_hypothese2.ite.next))
(define-fun .def_719 () Bool (or .def_717 .def_718))
(define-fun .def_724 () Bool (and .def_719 .def_723))
(define-fun .def_730 () Bool (and .def_724 .def_729))
(define-fun .def_733 () Bool (and .def_730 .def_732))
(define-fun .def_708 () Bool (= call__main_.nB0 call__main_.ite.next))
(define-fun .def_711 () Bool (or param__B0_.next .def_708))
(define-fun .def_697 () Bool (not param__B0_.next))
(define-fun .def_709 () Bool (or .def_697 .def_708))
(define-fun .def_695 () Bool (= call__main_.call_hypothese.c call__main_.call_hypothese.ite3.next))
(define-fun .def_705 () Bool (or .def_695 param__B0_.next))
(define-fun .def_702 () Bool (not .def_701))
(define-fun .def_700 () Bool (= .def_697 call__main_.call_hypothese.ite2.next))
(define-fun .def_703 () Bool (or .def_700 .def_702))
(define-fun .def_698 () Bool (or .def_695 .def_697))
(define-fun .def_704 () Bool (and .def_698 .def_703))
(define-fun .def_706 () Bool (and .def_704 .def_705))
(define-fun .def_710 () Bool (and .def_706 .def_709))
(define-fun .def_712 () Bool (and .def_710 .def_711))
(define-fun .def_691 () Bool (= call__main_.nB1 call__main_.ite2.next))
(define-fun .def_692 () Bool (or param__B1_.next .def_691))
(define-fun .def_686 () Int (* (- 1) call__main_.ite2.next))
(define-fun .def_687 () Int (+ call__main_.nB1 .def_686))
(define-fun .def_688 () Bool (= .def_687 (- 1)))
(define-fun .def_675 () Bool (not param__B1_.next))
(define-fun .def_689 () Bool (or .def_675 .def_688))
(define-fun .def_673 () Bool (= call__main_.call_hypothese2.c call__main_.call_hypothese2.ite3.next))
(define-fun .def_683 () Bool (or .def_673 param__B1_.next))
(define-fun .def_680 () Bool (not .def_679))
(define-fun .def_678 () Bool (= .def_675 call__main_.call_hypothese2.ite2.next))
(define-fun .def_681 () Bool (or .def_678 .def_680))
(define-fun .def_676 () Bool (or .def_673 .def_675))
(define-fun .def_682 () Bool (and .def_676 .def_681))
(define-fun .def_684 () Bool (and .def_682 .def_683))
(define-fun .def_690 () Bool (and .def_684 .def_689))
(define-fun .def_693 () Bool (and .def_690 .def_692))
(define-fun .def_713 () Bool (and .def_693 .def_712))
(define-fun .def_734 () Bool (and .def_713 .def_733))
(define-fun .def_743 () Bool (and .def_734 .def_742))
(define-fun .def_746 () Bool (and .def_743 .def_745))
(define-fun .def_756 () Bool (and .def_746 .def_755))
(define-fun .def_766 () Bool (and .def_756 .def_765))
(define-fun .def_768 () Bool (and .def_766 .def_767))
(define-fun .def_770 () Bool (and .def_768 .def_769))
(define-fun .def_773 () Bool (and .def_770 .def_772))
(define-fun .def_776 () Bool (and .def_773 .def_775))
(define-fun .def_779 () Bool (and .def_776 .def_778))
(define-fun .def_781 () Bool (and .def_779 .def_780))
(define-fun .def_785 () Bool (and .def_781 .def_784))
(define-fun .def_788 () Bool (and .def_785 .def_787))
(define-fun .def_790 () Bool (and .def_788 .def_789))
(define-fun .def_794 () Bool (and .def_790 .def_793))
(define-fun .def_797 () Bool (and .def_794 .def_796))
(define-fun .def_820 () Bool (and .def_797 .def_819))
(define-fun .def_823 () Bool (and .def_820 .def_822))
(define-fun .def_826 () Bool (and .def_823 .def_825))
(define-fun .def_849 () Bool (and .def_826 .def_848))
(define-fun .def_852 () Bool (and .def_849 .def_851))
(define-fun .def_855 () Bool (and .def_852 .def_854))
(define-fun .def_876 () Bool (and .def_855 .def_875))
(define-fun .def_984 () Bool (and .def_876 .def_983))
(assert .def_984)
